#######################



#######################
Set parameter TimeLimit to value 500
Set parameter SoftMemLimit to value 125
Set parameter MIPFocus to value 3
Set parameter LogFile to value 1003-MIPFocus3-Presolve2-TimeLimit500-k16x240-8.log
Set parameter Presolve to value 2
Set parameter Seed to value 18
Using license file /opt/gurobi/gurobi.lic

Gurobi Optimizer version 10.0.3 build v10.0.3rc0 (linux64)
Copyright (c) 2023, Gurobi Optimization, LLC

Read MPS format model from file /miplib2010/k16x240.mps.bz2
Reading time = 0.00 seconds
k16x240: 256 rows, 480 columns, 960 nonzeros

CPU model: Intel(R) Xeon(R) E-2388G CPU @ 3.20GHz, instruction set [SSE2|AVX|AVX2|AVX512]
Thread count: 8 physical cores, 16 logical processors, using up to 16 threads

Optimize a model with 256 rows, 480 columns and 960 nonzeros
Model fingerprint: 0x4e80885f
Variable types: 240 continuous, 240 integer (240 binary)
Coefficient statistics:
  Matrix range     [1e+00, 1e+03]
  Objective range  [1e+00, 1e+03]
  Bounds range     [1e+00, 1e+03]
  RHS range        [4e+00, 4e+02]
Found heuristic solution: objective 19474.000000
Presolve time: 0.00s
Presolved: 256 rows, 480 columns, 960 nonzeros
Variable types: 240 continuous, 240 integer (240 binary)
Root relaxation presolve removed 241 rows and 240 columns
Root relaxation presolved: 15 rows, 240 columns, 450 nonzeros


Root relaxation: objective 2.769838e+03, 16 iterations, 0.00 seconds (0.00 work units)

    Nodes    |    Current Node    |     Objective Bounds      |     Work
 Expl Unexpl |  Obj  Depth IntInf | Incumbent    BestBd   Gap | It/Node Time

     0     0 2769.83800    0   14 19474.0000 2769.83800  85.8%     -    0s
H    0     0                    11359.000000 2769.83800  75.6%     -    0s
H    0     0                    11317.000000 8116.87580  28.3%     -    0s
H    0     0                    11261.000000 8116.87580  27.9%     -    0s
H    0     0                    11240.000000 8116.87580  27.8%     -    0s
H    0     0                    10981.000000 8116.87580  26.1%     -    0s
     0     0 8116.87580    0   26 10981.0000 8116.87580  26.1%     -    0s
H    0     0                    10835.000000 8116.87580  25.1%     -    0s
     0     0 8760.57998    0   26 10835.0000 8760.57998  19.1%     -    0s
     0     0 8817.32172    0   20 10835.0000 8817.32172  18.6%     -    0s
     0     0 8817.32172    0   22 10835.0000 8817.32172  18.6%     -    0s
     0     0 8817.32172    0   34 10835.0000 8817.32172  18.6%     -    0s
     0     0 8817.32172    0   27 10835.0000 8817.32172  18.6%     -    0s
     0     0 8957.09487    0   41 10835.0000 8957.09487  17.3%     -    0s
     0     0 8998.66112    0   37 10835.0000 8998.66112  16.9%     -    0s
     0     0 8998.66112    0   33 10835.0000 8998.66112  16.9%     -    0s
     0     0 9003.42164    0   39 10835.0000 9003.42164  16.9%     -    0s
     0     0 9108.02244    0   47 10835.0000 9108.02244  15.9%     -    0s
     0     0 9126.27990    0   32 10835.0000 9126.27990  15.8%     -    0s
     0     0 9163.80393    0   38 10835.0000 9163.80393  15.4%     -    0s
H    0     0                    10832.000000 9163.80393  15.4%     -    0s
     0     0 9207.34336    0   44 10832.0000 9207.34336  15.0%     -    0s
     0     0 9207.34336    0   44 10832.0000 9207.34336  15.0%     -    0s
     0     2 9207.34336    0   44 10832.0000 9207.34336  15.0%     -    0s
H   64    80                    10789.000000 9428.98974  12.6%  75.9    0s
H   74    80                    10774.000000 9462.23063  12.2%  75.0    0s
H   83    93                    10744.000000 9467.15917  11.9%  74.1    0s
H  325   331                    10732.000000 9556.75157  11.0%  49.5    0s
H  665   702                    10681.000000 9612.72671  10.0%  42.8    0s
H  690   701                    10674.000000 9616.65873  9.91%  42.5    0s
  2919  2414 10425.4828   28   16 10674.0000 10172.1180  4.70%  80.6    5s
 11942  7088 10625.2042   33    9 10674.0000 10442.1067  2.17%  64.6   10s
 33073  8697 10612.9272   34   20 10674.0000 10599.1962  0.70%  44.7   15s

Cutting planes:
  Gomory: 1
  Lift-and-project: 5
  Cover: 1
  Implied bound: 13
  MIR: 137
  Flow cover: 509
  Flow path: 37
  Zero half: 31
  Network: 21
  Relax-and-lift: 3

Explored 48154 nodes (1700757 simplex iterations) in 16.89 seconds (30.62 work units)
Thread count was 16 (of 16 available processors)

Solution count 10: 10674 10681 10732 ... 11240

Optimal solution found (tolerance 1.00e-04)
Best objective 1.067400000000e+04, best bound 1.067306505441e+04, gap 0.0088%
